N=25;
D=4;
K=2;
S=16;
B=100;
M=[1 1];
MM=[5 5];
ND=2;
T=6;
C=[
10	2
10	2
10	2
10	2
];
beta=[
1	1	0	0	0	1	1	0	0	0	0	0	0	0	0	0	0	0	0	0	0	0	0	0	0
0	1	1	0	0	0	1	1	0	0	0	0	0	0	0	0	0	0	0	0	0	0	0	0	0
0	0	1	1	0	0	0	1	1	0	0	0	0	0	0	0	0	0	0	0	0	0	0	0	0
0	0	0	1	1	0	0	0	1	1	0	0	0	0	0	0	0	0	0	0	0	0	0	0	0
0	0	0	0	0	1	1	0	0	0	1	1	0	0	0	0	0	0	0	0	0	0	0	0	0
0	0	0	0	0	0	1	1	0	0	0	1	1	0	0	0	0	0	0	0	0	0	0	0	0
0	0	0	0	0	0	0	1	1	0	0	0	1	1	0	0	0	0	0	0	0	0	0	0	0
0	0	0	0	0	0	0	0	1	1	0	0	0	1	1	0	0	0	0	0	0	0	0	0	0
0	0	0	0	0	0	0	0	0	0	1	1	0	0	0	1	1	0	0	0	0	0	0	0	0
0	0	0	0	0	0	0	0	0	0	0	1	1	0	0	0	1	1	0	0	0	0	0	0	0
0	0	0	0	0	0	0	0	0	0	0	0	1	1	0	0	0	1	1	0	0	0	0	0	0
0	0	0	0	0	0	0	0	0	0	0	0	0	1	1	0	0	0	1	1	0	0	0	0	0
0	0	0	0	0	0	0	0	0	0	0	0	0	0	0	1	1	0	0	0	1	1	0	0	0
0	0	0	0	0	0	0	0	0	0	0	0	0	0	0	0	1	1	0	0	0	1	1	0	0
0	0	0	0	0	0	0	0	0	0	0	0	0	0	0	0	0	1	1	0	0	0	1	1	0
0	0	0	0	0	0	0	0	0	0	0	0	0	0	0	0	0	0	1	1	0	0	0	1	1
];
alfa=[
1	1	0	0	0	1	1	0	0	0	1	1	0	0	0	0	0	0	0	0	0	0	0	0	0
0	0	0	0	0	1	0	0	0	0	0	0	0	0	0	0	0	0	0	0	0	0	0	0	0
0	0	1	1	1	0	0	1	1	1	0	0	1	1	1	0	0	0	0	0	0	0	0	0	0
0	0	0	0	0	0	0	0	1	0	0	0	0	0	0	0	0	0	0	0	0	0	0	0	0
0	0	0	0	0	0	0	0	0	0	0	0	0	1	1	0	0	0	1	1	0	0	0	1	1
0	0	0	0	0	0	0	0	0	0	0	0	0	0	0	0	0	0	0	1	0	0	0	0	0
0	0	0	0	0	0	0	0	0	0	0	0	0	0	0	0	1	1	1	0	0	1	1	1	0
0	0	0	0	0	0	0	0	0	0	0	0	0	0	0	0	0	0	0	0	0	0	1	0	0
];
t=[
3.00	4.47	3.61	0.71	1.58	2.55	3.54	0.71	1.58	2.55	3.54	1.58	2.12	2.92	3.81	2.55	2.92	3.54	4.30
3.00	2.24	3.16	2.55	1.58	0.71	0.71	2.55	1.58	0.71	0.71	2.92	2.12	1.58	1.58	3.54	2.92	2.55	2.55
4.47	2.24	2.24	4.30	3.54	2.92	2.55	3.81	2.92	2.12	1.58	3.54	2.55	1.58	0.71	3.54	2.55	1.58	0.71
3.61	3.16	2.24	3.81	3.54	3.54	3.81	2.92	2.55	2.55	2.92	2.12	1.58	1.58	2.12	1.58	0.71	0.71	1.58
0.71	2.55	4.30	3.81	1.00	2.00	3.00	1.00	1.41	2.24	3.16	2.00	2.24	2.83	3.61	3.00	3.16	3.61	4.24
1.58	1.58	3.54	3.54	1.00	1.00	2.00	1.41	1.00	1.41	2.24	2.24	2.00	2.24	2.83	3.16	3.00	3.16	3.61
2.55	0.71	2.92	3.54	2.00	1.00	1.00	2.24	1.41	1.00	1.41	2.83	2.24	2.00	2.24	3.61	3.16	3.00	3.16
3.54	0.71	2.55	3.81	3.00	2.00	1.00	3.16	2.24	1.41	1.00	3.61	2.83	2.24	2.00	4.24	3.61	3.16	3.00
0.71	2.55	3.81	2.92	1.00	1.41	2.24	3.16	1.00	2.00	3.00	1.00	1.41	2.24	3.16	2.00	2.24	2.83	3.61
1.58	1.58	2.92	2.55	1.41	1.00	1.41	2.24	1.00	1.00	2.00	1.41	1.00	1.41	2.24	2.24	2.00	2.24	2.83
2.55	0.71	2.12	2.55	2.24	1.41	1.00	1.41	2.00	1.00	1.00	2.24	1.41	1.00	1.41	2.83	2.24	2.00	2.24
3.54	0.71	1.58	2.92	3.16	2.24	1.41	1.00	3.00	2.00	1.00	3.16	2.24	1.41	1.00	3.61	2.83	2.24	2.00
1.58	2.92	3.54	2.12	2.00	2.24	2.83	3.61	1.00	1.41	2.24	3.16	1.00	2.00	3.00	1.00	1.41	2.24	3.16
2.12	2.12	2.55	1.58	2.24	2.00	2.24	2.83	1.41	1.00	1.41	2.24	1.00	1.00	2.00	1.41	1.00	1.41	2.24
2.92	1.58	1.58	1.58	2.83	2.24	2.00	2.24	2.24	1.41	1.00	1.41	2.00	1.00	1.00	2.24	1.41	1.00	1.41
3.81	1.58	0.71	2.12	3.61	2.83	2.24	2.00	3.16	2.24	1.41	1.00	3.00	2.00	1.00	3.16	2.24	1.41	1.00
2.55	3.54	3.54	1.58	3.00	3.16	3.61	4.24	2.00	2.24	2.83	3.61	1.00	1.41	2.24	3.16	1.00	2.00	3.00
2.92	2.92	2.55	0.71	3.16	3.00	3.16	3.61	2.24	2.00	2.24	2.83	1.41	1.00	1.41	2.24	1.00	1.00	2.00
3.54	2.55	1.58	0.71	3.61	3.16	3.00	3.16	2.83	2.24	2.00	2.24	2.24	1.41	1.00	1.41	2.00	1.00	1.00
4.30	2.55	0.71	1.58	4.24	3.61	3.16	3.00	3.61	2.83	2.24	2.00	3.16	2.24	1.41	1.00	3.00	2.00	1.00
];
